TCS_Benchmarks/redos_fix/snort1_output_distinct_176_175_0_0.txt
([^\n\r]*)(\-{3})
([^\n\r]*)(\|)(\-{3})